--- Job Estacionario_precursors_iOS2164_AL_RXNs_PREC.gms Start 05/29/23 11:14:22 42.4.0 9dfaaa40 WEX-WEI x86 64bit/MS Windows
--- Applying:
    C:\GAMS\42\gmsprmNT.txt
--- GAMS Parameters defined
    Input D:\REPO_GITHUB\RICE_AL_FBA\1.1_BIOMASS_PRECURSORS\Estacionario_precursors_iOS2164_AL_RXNs_PREC.gms
    PageSize 0
    ScrDir D:\REPO_GITHUB\RICE_AL_FBA\1.1_BIOMASS_PRECURSORS\225a\
    SysDir C:\GAMS\42\
    LogOption 3
    ErrMsg 1
    ErrorLog 99
    IDE 1
    LstTitleLeftAligned 1
Licensee: GAMS Community License for Chrystian Sosa      G230516|0002AO-GEN
          Pontifical Xaverian University, Cali,                      CL6007
          C:\Users\cami_\Documents\GAMS\gamslice.txt
          Chrystian Sosa, ccossaa@javerianacali.edu.co                     
          Community license for demonstration and instructional purposes only
Processor information: 1 socket(s), 8 core(s), and 16 thread(s) available
GAMS 42.4.0   Copyright (C) 1987-2023 GAMS Development. All rights reserved
--- Starting compilation
--- Estacionario_precursors_iOS2164_AL_RXNs_PREC.gms(19224) 4 Mb
--- Starting execution: elapsed 0:00:00.041
--- Estacionario_precursors_iOS2164_AL_RXNs_PREC.gms(19204) 5 Mb
--- Generating LP model FBA
--- Estacionario_precursors_iOS2164_AL_RXNs_PREC.gms(19206) 6 Mb
---   2,312 rows  2,679 columns  11,404 non-zeroes
--- Range statistics (absolute non-zero finite values)
--- RHS       [min, max] : [        NA,        NA] - Zero values observed as well
--- Bound     [min, max] : [ 1.000E+03, 1.000E+03] - Zero values observed as well
--- Matrix    [min, max] : [ 5.000E-04, 3.387E+01]
--- Executing CPLEX (Solvelink=2): elapsed 0:00:00.056

IBM ILOG CPLEX   42.4.0 9dfaaa40 Mar 16, 2023          WEI x86 64bit/MS Window

--- *** This solver runs with a community license. No commercial use.
--- GMO setup time: 0.00s
--- Space for names approximately 0.10 Mb
--- Use option 'names no' to turn use of names off
--- GMO memory 1.57 Mb (peak 1.59 Mb)
--- Dictionary memory 0.00 Mb
--- Cplex 22.1.1.0 link memory 0.08 Mb (peak 0.36 Mb)
--- Starting Cplex

Version identifier: 22.1.1.0 | 2022-11-27 | 9160aff4d
CPXPARAM_Advance                                 0
CPXPARAM_Threads                                 1
CPXPARAM_MIP_Display                             4
CPXPARAM_MIP_Pool_Capacity                       0
CPXPARAM_Simplex_Limits_Iterations               10000000
CPXPARAM_TimeLimit                               100000
CPXPARAM_MIP_Tolerances_AbsMIPGap                0
Tried aggregator 1 time.
LP Presolve eliminated 1028 rows and 983 columns.
Aggregator did 731 substitutions.
Reduced LP has 552 rows, 965 columns, and 4829 nonzeros.
Presolve time = 0.00 sec. (3.77 ticks)

Iteration log . . .
Iteration:     1   Dual objective     =          1000.000000
Perturbation started.
Iteration:    51   Dual objective     =          1000.000000
Iteration:   141   Dual objective     =           511.102583
Iteration:   228   Dual objective     =           420.870861
Iteration:   310   Dual objective     =           420.850318
Iteration:   388   Dual objective     =           292.724860
Iteration:   450   Dual objective     =           268.270080
Iteration:   512   Dual objective     =           216.838905
Iteration:   583   Dual objective     =           138.015418
Iteration:   662   Dual objective     =           129.655509
Iteration:   741   Dual objective     =           129.552804
Iteration:   812   Dual objective     =           129.462453
Iteration:   874   Dual objective     =           129.440580
Iteration:   936   Dual objective     =           129.427232
Iteration:   998   Dual objective     =           129.412628
Iteration:  1060   Dual objective     =           129.396870
Iteration:  1122   Dual objective     =           116.726998
Iteration:  1184   Dual objective     =            98.775710
Removing perturbation.

--- LP status (1): optimal.
--- Cplex Time: 0.03sec (det. 41.29 ticks)


Optimal solution found
Objective:           96.671745

--- Reading solution for model FBA
--- Executing after solve: elapsed 0:00:00.152
--- Estacionario_precursors_iOS2164_AL_RXNs_PREC.gms(19224) 6 Mb
--- Putfile results D:\REPO_GITHUB\RICE_AL_FBA\1.1_BIOMASS_PRECURSORS\FIRST_ATTEMPT_PREC.csv
*** Status: Normal completion
--- Job Estacionario_precursors_iOS2164_AL_RXNs_PREC.gms Stop 05/29/23 11:14:22 elapsed 0:00:00.156
